3
40
11878
[[748,175,308,516,787,989,325,510,969, 72,416,913, 89,  4,725,407,450,176,604,159,382,490,694,943,842,397,363,845,161, 28,611,469,886,852, 85,860,881, 69,553,939],
 [252,825,692,484,213, 11,675,490, 31,928,584, 87,911,996,275,593,550,824,396,841,618,510,306, 57,158,603,637,155,839,972,389,531,114,148,915,140,119,931,447, 61],
 [ 74, 35, 81, 51, 59,  1, 85, 12,  4, 95, 57, 22,  1, 18, 95, 56, 74, 47,  8, 59, 46, 62, 23, 35, 94, 81, 33, 36, 53, 92, 59, 88, 74,  3, 38, 43, 33, 18, 10,  4]]
[717,421,875,605,722,176,475,330,303,442,798,593,197,380,924,387,758,328,416,901,996,186,970,881,660,942,228,868,199,523,622,990,407,739,708,822,900,408,821,139]